RT is False
Default write of storage_offers_DA.csv just to have a file (but constraint should be inactive)
Reading model...
...model read.
creating competitive generators file...
...competitive generators recorded.
Loading data...
.. day-ahead data with real-time VRE data read.
Compiling instance...
...instance created.
Creating Offer Mitigation (model will solve as dispatch if TRUE)...
...storage offer mitigation file created
Converting model to MPEC...
...converted
NOTE: initial MIP solve with only storage competitive to get feasible solution
Solving...

Welcome to IBM(R) ILOG(R) CPLEX(R) Interactive Optimizer 12.9.0.0
  with Simplex, Mixed Integer & Barrier Optimizers
5725-A06 5725-A29 5724-Y48 5724-Y49 5724-Y54 5724-Y55 5655-Y21
Copyright IBM Corp. 1988, 2019.  All Rights Reserved.

Type 'help' for a list of available commands.
Type 'help' followed by a command name for more
information on commands.

CPLEX> Logfile 'cplex.log' closed.
Logfile 'C:\Users\llavin\Desktop\test826\logs\tmpsgginp4v.cplex.log' open.
CPLEX> New value for parallel optimization mode: -1
CPLEX> New value for mixed integer optimality gap tolerance: 0.01
CPLEX> New value for emphasis for MIP optimization: 1
CPLEX> New value for integrality tolerance: 1e-12
CPLEX> New value for deterministic time limit in ticks: 50000
CPLEX> Problem 'C:\Users\llavin\Desktop\test826\logs\tmpzhhl9eam.pyomo.lp' read.
Read time = 0.24 sec. (14.73 ticks)
CPLEX> Problem name         : C:\Users\llavin\Desktop\test826\logs\tmpzhhl9eam.pyomo.lp
Objective sense      : Maximize
Variables            :   53805  [Nneg: 1,  Box: 22000,  Free: 4464,
                                 Binary: 27340]
Objective nonzeros   :    9029
Linear constraints   :  123205  [Less: 41346,  Greater: 59096,  Equal: 22763]
  Nonzeros           :  291753
  RHS nonzeros       :   67491

Variables            : Min LB: -5000.000        Max UB: 1000000.       
Objective nonzeros   : Min   : 0.07500000       Max   : 2500.000       
Linear constraints   :
  Nonzeros           : Min   : 0.07500000       Max   : 1000000.       
  RHS nonzeros       : Min   : 0.07500000       Max   : 1000000.       
CPLEX> CPXPARAM_Parallel                                -1
CPXPARAM_Emphasis_MIP                            1
CPXPARAM_DetTimeLimit                            50000
CPXPARAM_MIP_Tolerances_MIPGap                   0.01
CPXPARAM_MIP_Tolerances_Integrality              9.9999999999999998e-13
Tried aggregator 3 times.
MIP Presolve eliminated 88689 rows and 19013 columns.
MIP Presolve added 3378 rows and 0 columns.
MIP Presolve modified 24799 coefficients.
Aggregator did 12975 substitutions.
Reduced MIP has 24919 rows, 21261 columns, and 71073 nonzeros.
Reduced MIP has 8403 binaries, 0 generals, 0 SOSs, and 0 indicators.
Presolve time = 0.28 sec. (167.96 ticks)
Probing fixed 394 vars, tightened 3857 bounds.
Probing time = 0.06 sec. (18.82 ticks)
Tried aggregator 2 times.
MIP Presolve eliminated 890 rows and 789 columns.
MIP Presolve modified 3031 coefficients.
Aggregator did 35 substitutions.
Reduced MIP has 23994 rows, 20437 columns, and 68394 nonzeros.
Reduced MIP has 8009 binaries, 0 generals, 0 SOSs, and 0 indicators.
Presolve time = 0.11 sec. (88.99 ticks)
Probing fixed 0 vars, tightened 226 bounds.
Probing time = 0.14 sec. (22.36 ticks)
Clique table members: 44851.
MIP emphasis: integer feasibility.
MIP search method: dynamic search.
Parallel mode: opportunistic, using up to 32 threads.
Root relaxation solution time = 0.47 sec. (696.44 ticks)

        Nodes                                         Cuts/
   Node  Left     Objective  IInf  Best Integer    Best Bound    ItCnt     Gap

      0     0     3954.6141   152                   3954.6141     5892         
      0     0     3954.6141     3                     Cuts: 2     5894         
      0     3     3864.0450     3                     Cuts: 2     5905         
Elapsed time = 3.41 sec. (1625.88 ticks, tree = 0.02 MB, solutions = 0)
*   227    59      integral     0     3863.5465     3864.0450     6205    0.01%
*   240    56      integral     0     3864.0450     3864.0450     6196    0.00%

Cover cuts applied:  3
Implied bound cuts applied:  2
Flow cuts applied:  1

Root node processing (before b&c):
  Real time             =    2.16 sec. (1597.83 ticks)
Parallel b&c, 32 threads:
  Real time             =    2.25 sec. (236.10 ticks)
  Sync time (average)   =    0.78 sec.
  Wait time (average)   =    0.00 sec.
                          ------------
Total (root+branch&cut) =    4.41 sec. (1833.94 ticks)

Solution pool: 4 solutions saved.

MIP - Integer optimal solution:  Objective =  3.8640449943e+03
Solution time =    4.44 sec.  Iterations = 12038  Nodes = 499
Deterministic time = 1834.09 ticks  (413.36 ticks/sec)

CPLEX> Incumbent solution written to file 'C:\Users\llavin\Desktop\test826\logs\tmp_s4qqae3.cplex.sol'.
CPLEX> NOTE: no warmstart specified for MIP iteration, default behavior is true
NOTE: resolving with all competitive generators using storage-only solution to warmstart
Solving...

Welcome to IBM(R) ILOG(R) CPLEX(R) Interactive Optimizer 12.9.0.0
  with Simplex, Mixed Integer & Barrier Optimizers
5725-A06 5725-A29 5724-Y48 5724-Y49 5724-Y54 5724-Y55 5655-Y21
Copyright IBM Corp. 1988, 2019.  All Rights Reserved.

Type 'help' for a list of available commands.
Type 'help' followed by a command name for more
information on commands.

CPLEX> Logfile 'cplex.log' closed.
Logfile 'C:\Users\llavin\Desktop\test826\logs\tmp951zjaji.cplex.log' open.
CPLEX> New value for parallel optimization mode: -1
CPLEX> New value for mixed integer optimality gap tolerance: 0.01
CPLEX> New value for emphasis for MIP optimization: 1
CPLEX> New value for integrality tolerance: 1e-12
CPLEX> New value for deterministic time limit in ticks: 50000
CPLEX> Problem 'C:\Users\llavin\Desktop\test826\logs\tmp8xq62994.pyomo.lp' read.
Read time = 0.23 sec. (14.75 ticks)
CPLEX> MIP start file 'C:\Users\llavin\Desktop\test826\logs\tmpdcdnhkz9.cplex.mst' read.
CPLEX> Problem name         : C:\Users\llavin\Desktop\test826\logs\tmp8xq62994.pyomo.lp
Objective sense      : Maximize
Variables            :   54525  [Nneg: 1,  Box: 22720,  Free: 4464,
                                 Binary: 27340]
Objective nonzeros   :    9725
Linear constraints   :  123205  [Less: 41346,  Greater: 59096,  Equal: 22763]
  Nonzeros           :  291753
  RHS nonzeros       :   67491

Variables            : Min LB: -5000.000        Max UB: 1000000.       
Objective nonzeros   : Min   : 0.07500000       Max   : 2500.000       
Linear constraints   :
  Nonzeros           : Min   : 0.07500000       Max   : 1000000.       
  RHS nonzeros       : Min   : 0.07500000       Max   : 1000000.       
CPLEX> CPXPARAM_Parallel                                -1
CPXPARAM_Emphasis_MIP                            1
CPXPARAM_DetTimeLimit                            50000
CPXPARAM_MIP_Tolerances_MIPGap                   0.01
CPXPARAM_MIP_Tolerances_Integrality              9.9999999999999998e-13
Warning:  No solution found from 1 MIP starts.
Retaining values of one MIP start for possible repair.
Tried aggregator 3 times.
MIP Presolve eliminated 88689 rows and 19733 columns.
MIP Presolve added 3378 rows and 0 columns.
MIP Presolve modified 24799 coefficients.
Aggregator did 12975 substitutions.
Reduced MIP has 24919 rows, 21261 columns, and 71073 nonzeros.
Reduced MIP has 8403 binaries, 0 generals, 0 SOSs, and 0 indicators.
Presolve time = 0.30 sec. (168.31 ticks)
Probing fixed 394 vars, tightened 3857 bounds.
Probing time = 0.06 sec. (18.82 ticks)
Tried aggregator 2 times.
MIP Presolve eliminated 890 rows and 789 columns.
MIP Presolve modified 3031 coefficients.
Aggregator did 35 substitutions.
Reduced MIP has 23994 rows, 20437 columns, and 68394 nonzeros.
Reduced MIP has 8009 binaries, 0 generals, 0 SOSs, and 0 indicators.
Presolve time = 0.11 sec. (89.00 ticks)
Probing fixed 0 vars, tightened 226 bounds.
Probing time = 0.16 sec. (22.36 ticks)
Clique table members: 44851.
MIP emphasis: integer feasibility.
MIP search method: dynamic search.
Parallel mode: opportunistic, using up to 32 threads.
Root relaxation solution time = 0.48 sec. (695.30 ticks)

        Nodes                                         Cuts/
   Node  Left     Objective  IInf  Best Integer    Best Bound    ItCnt     Gap

      0     0    61181.2288   170                  61181.2288     6003         
      0     0    61180.9460    12                 Flowcuts: 6     6010         
      0     0    61179.3279    11                     Cuts: 4     6015         
      0     0    61176.5504    12                     Cuts: 3     6017         
Repair heuristic found nothing.
      0    21    infeasible                           Cuts: 5     6258         
Elapsed time = 4.09 sec. (1783.69 ticks, tree = 0.02 MB, solutions = 0)
    604   356    infeasible                        61087.5632    13318         
   1066   604    infeasible                        61087.5632    24596         
   1518   829    infeasible                        61087.5632    37316         
   1898  1016    infeasible                        61087.5632    52175         
   2326  1185    58180.9699     3                  61087.5632    63743         
   2654  1451    60909.1201     2                  61087.5632    76823         
*  2712  1298      integral     0    60907.9326    61087.5632    70446    0.29%
*  2717  1300      integral     0    60909.8898    61087.5632    70443    0.29%
   2863  1487    infeasible          60909.8898    61087.5632    79814    0.29%

Cover cuts applied:  9
Flow cuts applied:  10

Root node processing (before b&c):
  Real time             =    2.72 sec. (1764.04 ticks)
Parallel b&c, 32 threads:
  Real time             =    8.25 sec. (1855.88 ticks)
  Sync time (average)   =    1.15 sec.
  Wait time (average)   =    0.00 sec.
                          ------------
Total (root+branch&cut) =   10.97 sec. (3619.92 ticks)

Solution pool: 5 solutions saved.

MIP - Integer optimal, tolerance (0.01/1e-06):  Objective =  6.0909889793e+04
Current MIP best bound =  6.1087563200e+04 (gap = 177.673, 0.29%)
Solution time =   10.98 sec.  Iterations = 93208  Nodes = 2868 (9)
Deterministic time = 3620.07 ticks  (329.58 ticks/sec)

CPLEX> Incumbent solution written to file 'C:\Users\llavin\Desktop\test826\logs\tmpc8ijq1pg.cplex.sol'.
CPLEX> Exporting results... 
